SPARKNaCl/why3-cvc5/sparknacl-hashing-sha2_common.adb_295_43_range_check_1.smt2
;; produced by cvc5.drv ;;
(set-logic ALL)
(set-info :smt-lib-version 2.6)
;;; generated by SMT-LIB2 driver
;;; SMT-LIB2 driver: bit-vectors, common part
;;; SMT-LIB2: integer arithmetic
(define-fun __cdiv ((x Int) (y Int)) Int (ite (>= x 0) (div x y) (- (div (- x) y))))
(define-fun __cmod ((x Int) (y Int)) Int (ite (>= x 0) (mod x y) (- (mod (- x) y))))
;; "mod"
(define-fun mod1 ((x Int) (y Int)) Int
  (ite (<= 0 y) (mod x y) (- (mod (- x) y))))

;; "pow2"
(declare-fun pow2 (Int) Int)

(declare-const two_power_size_minus_one Int)

;; "two_power_size_minus_one_val"
(assert (= two_power_size_minus_one (pow2 (- 8 1))))

;; "min"
(define-fun min ((x Int) (y Int)) Int
  (ite (<= x y) x y))

;; "max"
(define-fun max ((x Int) (y Int)) Int
  (ite (<= x y) y x))

;; "Min_r"
(assert (forall ((x Int) (y Int)) (=> (<= y x) (= (min x y) y))))

;; "Max_l"
(assert (forall ((x Int) (y Int)) (=> (<= y x) (= (max x y) x))))

;; "Min_comm"
(assert (forall ((x Int) (y Int)) (= (min x y) (min y x))))

;; "Max_comm"
(assert (forall ((x Int) (y Int)) (= (max x y) (max y x))))

;; "Min_assoc"
(assert
  (forall ((x Int) (y Int) (z Int)) (= (min (min x y) z) (min x (min y z)))))

;; "Max_assoc"
(assert
  (forall ((x Int) (y Int) (z Int)) (= (max (max x y) z) (max x (max y z)))))

(declare-const two_power_size_minus_one1 Int)

;; "two_power_size_minus_one_val"
(assert (= two_power_size_minus_one1 (pow2 (- 64 1))))

;; "uint_in_range"
(define-fun uint_in_range ((i Int)) Bool
  (and (<= 0 i) (<= i 18446744073709551615)))

(declare-sort byte 0)

;; "to_rep"
(declare-fun to_rep (byte) (_ BitVec 8))

;; "of_rep"
(declare-fun of_rep ((_ BitVec 8)) byte)

;; "inversion_axiom"
(assert
  (forall ((x byte)) (! (= (of_rep (to_rep x)) x) :pattern ((to_rep x)) )))

;; "range_axiom"
(assert true)

;; "coerce_axiom"
(assert
  (forall ((x (_ BitVec 8)))
    (! (= (to_rep (of_rep x)) x) :pattern ((to_rep (of_rep x))) )))

(declare-sort map1 0)

;; "has_bounds"
(declare-fun has_bounds (map1
  Int
  Int) Bool)

;; "get"
(declare-fun get (map1
  Int) byte)

;; "set"
(declare-fun set (map1
  Int
  byte) map1)

;; "set_eq"
(assert
  (forall ((a map1) (i Int) (v byte))
    (! (= (get (set a i v) i) v) :pattern ((set a i v)) )))

;; "set_neq"
(assert
  (forall ((a map1) (i Int) (v byte))
    (! (forall ((j Int))
         (! (=> (not (= i j)) (= (get (set a i v) j) (get a j))) :pattern (
         (get
           a
           j)) :pattern ((get (set a i v) j)) )) :pattern ((set a i v)) )))

;; "set_has_bounds"
(assert
  (forall ((a map1) (i Int) (f Int) (l Int) (v byte))
    (! (=>
         (and (<= f i) (<= i l))
         (=> (has_bounds a f l) (has_bounds (set a i v) f l))) :pattern (
    (has_bounds
      (set a i v)
      f
      l)) )))

;; "slide"
(declare-fun slide (map1
  Int
  Int) map1)

;; "slide_eq"
(assert
  (forall ((a map1) (first Int))
    (! (= (slide a first first) a) :pattern ((slide a first first)) )))

;; "slide_def"
(assert
  (forall ((a map1) (old_first Int) (new_first Int))
    (! (and
         (forall ((i Int))
           (! (= (get (slide a old_first new_first) i) (get
                                                         a
                                                         (- i (- new_first old_first)))) :pattern (
           (get
             (slide a old_first new_first)
             i)) ))
         (forall ((new_last Int))
           (! (=>
                (has_bounds a old_first (- new_last (- new_first old_first)))
                (has_bounds (slide a old_first new_first) new_first new_last)) :pattern (
           (has_bounds
             (slide a old_first new_first)
             new_first
             new_last)) ))) :pattern ((slide a old_first new_first)) )))

;; "slice"
(declare-fun slice (map1
  Int
  Int) map1)

;; "slice_eq"
(assert
  (forall ((a map1) (f Int) (l Int))
    (! (=> (has_bounds a f l) (= (slice a f l) a)) :pattern ((slice a f l)
    (has_bounds a f l)) )))

;; "slice_slice"
(assert
  (forall ((a map1) (f1 Int) (l1 Int) (f2 Int) (l2 Int))
    (! (=>
         (and (<= f1 f2) (<= l2 l1))
         (= (slice (slice a f1 l1) f2 l2) (slice a f2 l2))) :pattern (
    (slice
      (slice a f1 l1)
      f2
      l2)) )))

;; "slice_def"
(assert
  (forall ((a map1) (f Int) (l Int))
    (! (forall ((i Int))
         (! (=> (and (<= f i) (<= i l)) (= (get (slice a f l) i) (get a i))) :pattern (
         (get
           (slice a f l)
           i)) :pattern ((get a i)) )) :pattern ((slice a f l)) )))

;; "slice_has_bounds"
(assert
  (forall ((a map1) (f Int) (l Int))
    (! (has_bounds (slice a f l) f l) :pattern ((has_bounds
                                                  (slice a f l)
                                                  f
                                                  l)) )))

(declare-const iv map1)

(declare-sort tinteger_32B 0)

;; "tinteger_32B'int"
(declare-fun tinteger_32Bqtint (tinteger_32B) Int)

;; "tinteger_32B'axiom"
(assert
  (forall ((i tinteger_32B))
    (and
      (<= (- 2147483648) (tinteger_32Bqtint i))
      (<= (tinteger_32Bqtint i) 2147483647))))

;; "in_range"
(define-fun in_range ((x Int)) Bool
  (and (<= (- 2147483648) x) (<= x 2147483647)))

;; "to_rep"
(define-fun to_rep1 ((x tinteger_32B)) Int
  (tinteger_32Bqtint x))

;; "of_rep"
(declare-fun of_rep1 (Int) tinteger_32B)

;; "inversion_axiom"
(assert
  (forall ((x tinteger_32B))
    (! (= (of_rep1 (to_rep1 x)) x) :pattern ((to_rep1 x)) )))

;; "range_axiom"
(assert
  (forall ((x tinteger_32B))
    (! (in_range (to_rep1 x)) :pattern ((to_rep1 x)) )))

;; "coerce_axiom"
(assert
  (forall ((x Int))
    (! (=> (in_range x) (= (to_rep1 (of_rep1 x)) x)) :pattern ((to_rep1
                                                                 (of_rep1 x))) )))

;; "in_range"
(define-fun in_range1 ((x Int)) Bool
  (and (<= 0 x) (<= x 2147483647)))

(declare-datatypes ((t 0))
  (((tqtmk (rec__first tinteger_32B)(rec__last tinteger_32B)))))

;; "mk"
(declare-fun mk (Int
  Int) t)

;; "mk_def"
(assert
  (forall ((f Int) (l Int))
    (! (=>
         (in_range f)
         (=>
           (in_range l)
           (and
             (= (to_rep1 (rec__first (mk f l))) f)
             (= (to_rep1 (rec__last (mk f l))) l)))) :pattern ((mk f l)) )))

;; "dynamic_property"
(define-fun dynamic_property ((range_first Int) (range_last Int) (low Int) (high Int)) Bool
  (and
    (in_range low)
    (and
      (in_range high)
      (=> (<= low high) (and (in_range1 low) (in_range1 high))))))

(declare-datatypes ((us_t 0))
  (((us_tqtmk (elts map1)(rt t)))))

;; "to_array"
(define-fun to_array ((a us_t)) map1
  (elts a))

;; "of_array"
(define-fun of_array ((a map1) (f Int) (l Int)) us_t
  (us_tqtmk a (mk f l)))

;; "first"
(define-fun first ((a us_t)) Int
  (to_rep1 (rec__first (rt a))))

;; "last"
(define-fun last ((a us_t)) Int
  (to_rep1 (rec__last (rt a))))

;; "length"
(define-fun length ((a us_t)) Int
  (ite (<= (first a) (last a)) (+ (- (last a) (first a)) 1) 0))

;; "well_formed"
(define-fun well_formed ((a us_t)) Bool
  (has_bounds
    (elts a)
    (to_rep1 (rec__first (rt a)))
    (to_rep1 (rec__last (rt a)))))

(declare-const m us_t)

;; "in_range"
(define-fun in_range2 ((x Int)) Bool
  (and (<= (- 2147483648) x) (<= x 2147483647)))

;; "dynamic_invariant"
(define-fun dynamic_invariant ((temp___expr_329 us_t) (temp___is_init_325 Bool) (temp___skip_constant_326 Bool) (temp___do_toplevel_327 Bool) (temp___do_typ_inv_328 Bool)) Bool
  (and
    (=>
      (not (= temp___skip_constant_326 true))
      (dynamic_property
        0
        2147483647
        (first temp___expr_329)
        (last temp___expr_329)))
    (well_formed temp___expr_329)))

;; "in_range"
(define-fun in_range3 ((x Int)) Bool
  (and (<= (- 9223372036854775808) x) (<= x 9223372036854775807)))

;; "in_range"
(define-fun in_range4 ((x Int)) Bool
  (and (<= 0 x) (<= x 127)))

;; "temp_____aggregate_def_729"
(declare-fun temp_____aggregate_def_729 ((_ BitVec 8)) map1)

;; Goal "def'vc"
;; File "sparknacl-hashing-sha2_common.ads", line 26, characters 0-0
(assert
  (not
  (forall ((output map1) (x map1) (b Int) (final_block_first Int))
    (=>
      (has_bounds output 0 63)
      (=>
        (has_bounds iv 0 63)
        (=>
          (dynamic_invariant m true false true true)
          (forall ((h map1))
            (=>
              (= h iv)
              (=>
                (has_bounds h 0 63)
                (=>
                  (has_bounds x 0 255)
                  (=>
                    (in_range4 b)
                    (=>
                      (in_range2 final_block_first)
                      (forall ((temp___733 map1))
                        (=>
                          (and
                            (and
                              (has_bounds temp___733 0 255)
                              (forall ((temp___732 Int))
                                (! (=>
                                     (and
                                       (<= 0 temp___732)
                                       (<= temp___732 255))
                                     (= (to_rep (get temp___733 temp___732)) #x00)) :pattern (
                                (get
                                  temp___733
                                  temp___732)) )))
                            (= temp___733 (temp_____aggregate_def_729 #x00)))
                          (forall ((x1 map1))
                            (=>
                              (= x1 temp___733)
                              (forall ((h1 map1))
                                (=>
                                  (has_bounds h1 0 63)
                                  (let ((o (length m)))
                                    (=>
                                      (in_range3 o)
                                      (let ((o1 (mod1 o 128)))
                                        (=>
                                          (in_range4 o1)
                                          (forall ((b1 Int))
                                            (=>
                                              (= b1 o1)
                                              (forall ((spark__branch Bool) (x2 map1))
                                                (=>
                                                  (and
                                                    (= spark__branch 
                                                    (ite (< 0 b1)
                                                      true
                                                      false))
                                                    (ite (= spark__branch true)
                                                      (let ((o2 (- (last m) b1)))
                                                        (and
                                                          (in_range o2)
                                                          (let ((o3 (+ o2 1)))
                                                            (and
                                                              (in_range o3)
                                                              (exists 
                                                                ((final_block_first1 Int))
                                                                (and
                                                                  (= final_block_first1 o3)
                                                                  (let ((temp___740 
                                                                    (last
                                                                    m)))
                                                                    (and
                                                                    (=>
                                                                    (<= final_block_first1 temp___740)
                                                                    (and
                                                                    (and
                                                                    (<= 
                                                                    (first
                                                                    m) final_block_first1)
                                                                    (<= final_block_first1 
                                                                    (last
                                                                    m)))
                                                                    (and
                                                                    (<= 
                                                                    (first
                                                                    m) temp___740)
                                                                    (<= temp___740 
                                                                    (last
                                                                    m)))))
                                                                    (and
                                                                    (ite (<= final_block_first1 temp___740)
                                                                    (and
                                                                    (<= 0 (- b1 1))
                                                                    (= (- temp___740 final_block_first1) (- (- b1 1) 0)))
                                                                    (< (- b1 1) 0))
                                                                    (let ((o4 (- b1 1)))
                                                                    (let ((temp___745 (- b1 1)))
                                                                    (and
                                                                    (=>
                                                                    (<= 0 temp___745)
                                                                    (and
                                                                    (and
                                                                    (<= 0 0)
                                                                    (<= 0 255))
                                                                    (and
                                                                    (<= 0 temp___745)
                                                                    (<= temp___745 255))))
                                                                    (and
                                                                    (ite (<= 0 o4)
                                                                    (and
                                                                    (<= 0 temp___745)
                                                                    (= (- o4 0) (- temp___745 0)))
                                                                    (< temp___745 0))
                                                                    (exists 
                                                                    ((usf map1))
                                                                    (and
                                                                    (forall 
                                                                    ((temp___748 Int))
                                                                    (ite 
                                                                    (and
                                                                    (<= 0 temp___748)
                                                                    (<= temp___748 (- b1 1)))
                                                                    (= 
                                                                    (get
                                                                    usf
                                                                    temp___748) 
                                                                    (get
                                                                    (slide
                                                                    (slice
                                                                    (to_array
                                                                    m)
                                                                    final_block_first1
                                                                    temp___740)
                                                                    final_block_first1
                                                                    0)
                                                                    temp___748))
                                                                    (= 
                                                                    (get
                                                                    usf
                                                                    temp___748) 
                                                                    (get
                                                                    x1
                                                                    temp___748))))
                                                                    (= x2 usf))))))))))))))))
                                                      (= x2 x1)))
                                                  (forall ((o2 byte))
                                                    (=>
                                                      (= (to_rep o2) #x80)
                                                      (forall ((x3 map1))
                                                        (=>
                                                          (= x3 (set
                                                                  x2
                                                                  b1
                                                                  o2))
                                                          (uint_in_range
                                                            (length m))))))))))))))))))))))))))))))))

(check-sat)
